(set-info :smt-lib-version 2.6)
(set-logic QF_ALIA)
(set-info :notes "Adapted for Array Sum evaluation.
Base file: qlock.base.5.smt2")
(set-info :source |
Unbounded version of the queue lock algorithm.
|)
(set-info :category "industrial")
(declare-fun x_0 () Int)
(declare-fun x_1 () Int)
(declare-fun x_2 () (Array Int Int))
(declare-fun x_3 () Int)
(declare-fun x_4 () Int)
(declare-fun x_5 () Bool)
(declare-fun x_6 () Int)
(declare-fun x_7 () (Array Int Int))
(declare-fun x_8 () Int)
(declare-fun x_9 () (Array Int Int))
(declare-fun x_10 () Int)
(declare-fun x_11 () Bool)
(declare-fun x_12 () Int)
(declare-fun x_13 () Int)
(declare-fun x_14 () Int)
(declare-fun x_15 () Int)
(declare-fun x_16 () Int)
(declare-fun x_17 () (Array Int Int))
(declare-fun x_18 () Int)
(declare-fun x_19 () Int)
(declare-fun x_20 () Int)
(declare-fun x_21 () Int)
(declare-fun x_22 () Int)
(declare-fun x_23 () (Array Int Int))
(declare-fun x_24 () Int)
(declare-fun x_25 () Bool)
(declare-fun x_26 () Int)
(declare-fun x_27 () Int)
(declare-fun x_28 () Int)
(declare-fun x_29 () Int)
(declare-fun x_30 () Int)
(declare-fun x_31 () (Array Int Int))
(declare-fun x_32 () Int)
(declare-fun x_33 () Int)
(declare-fun x_34 () Int)
(declare-fun x_35 () Int)
(declare-fun x_36 () Int)
(declare-fun x_37 () (Array Int Int))
(declare-fun x_38 () Int)
(declare-fun x_39 () Bool)
(declare-fun x_40 () Int)
(declare-fun x_41 () Int)
(declare-fun x_42 () Int)
(declare-fun x_43 () Int)
(declare-fun x_44 () Int)
(declare-fun x_45 () (Array Int Int))
(declare-fun x_46 () Int)
(declare-fun x_47 () Int)
(declare-fun x_48 () Int)
(declare-fun x_49 () Int)
(declare-fun x_50 () Int)
(declare-fun x_51 () (Array Int Int))
(declare-fun x_52 () Int)
(declare-fun x_53 () Bool)
(declare-fun x_54 () Int)
(declare-fun x_55 () Int)
(declare-fun x_56 () Int)
(declare-fun x_57 () Int)
(declare-fun x_58 () Int)
(declare-fun x_59 () (Array Int Int))
(declare-fun x_60 () Int)
(declare-fun x_61 () Int)
(declare-fun x_62 () Int)
(declare-fun x_63 () Int)
(declare-fun x_64 () Int)
(declare-fun x_65 () (Array Int Int))
(declare-fun x_66 () Int)
(declare-fun x_67 () Bool)
(declare-fun x_68 () Int)
(declare-fun x_69 () Int)
(declare-fun x_70 () Int)
(declare-fun x_71 () Int)
(declare-fun x_72 () Int)
(declare-fun x_73 () (Array Int Int))
(declare-fun x_74 () Int)
(declare-fun x_75 () Int)
(declare-fun x_76 () Int)
(declare-fun x_77 () Int)
(declare-fun x_78 () Int)
(declare-fun x_79 () Int)
(declare-fun x_80 () Int)
(declare-fun x_81 () Int)
(declare-fun x_82 () Int)
(declare-fun x_83 () Int)
(declare-fun x_84 () Int)
(declare-fun x_85 () Int)
(declare-fun x_86 () Int)
(declare-fun x_87 () Int)
(declare-fun x_88 () Int)
(declare-fun x_89 () Int)
(declare-fun x_90 () Int)
(declare-fun x_91 () Int)
(declare-fun x_92 () Int)
(declare-fun x_93 () Int)
(declare-fun x_94 () Int)
(declare-fun x_95 () Int)
(declare-fun x_96 () Int)
(declare-fun x_97 () Int)
(declare-fun x_98 () Int)
(declare-fun x_99 () Int)
(declare-fun x_100 () Int)
(declare-fun x_101 () Int)
(declare-fun x_102 () Int)
(declare-fun x_103 () Int)
(declare-fun x_104 () Int)
(declare-fun x_105 () Int)
(declare-fun x_106 () Int)
(declare-fun x_107 () Int)
(declare-fun x_108 () Int)
(declare-fun x_109 () Int)
(declare-fun x_110 () Int)
(declare-fun x_111 () Int)
(assert (let ((?v_23 (= x_9 x_7)) (?v_20 (= x_10 x_0)) (?v_21 (= x_11 x_5)) (?v_24 (= x_12 x_1)) (?v_22 (not (<= x_1 x_0))) (?v_18 (= x_23 x_9)) (?v_15 (= x_24 x_10)) (?v_16 (= x_25 x_11)) (?v_19 (= x_26 x_12)) (?v_17 (not (<= x_12 x_10))) (?v_13 (= x_37 x_23)) (?v_10 (= x_38 x_24)) (?v_11 (= x_39 x_25)) (?v_14 (= x_40 x_26)) (?v_12 (not (<= x_26 x_24))) (?v_8 (= x_51 x_37)) (?v_5 (= x_52 x_38)) (?v_6 (= x_53 x_39)) (?v_9 (= x_54 x_40)) (?v_7 (not (<= x_40 x_38))) (?v_3 (= x_65 x_51)) (?v_0 (= x_66 x_52)) (?v_1 (= x_67 x_53)) (?v_4 (= x_68 x_54)) (?v_2 (not (<= x_54 x_52))) (?v_25 (select x_2 x_3)) (?v_26 (select x_2 x_4))) (and (and (and (and (and (and (and (and (and (and (and (and (and (and (and (and (and (and (and (and (and (and (and (and (and (and (and (and (and (and (and (and (and (and (and (and (and (and (and (and (and (and (and (and (and (and (and (and (and (and (and (and (and (and (and (and (not (= x_4 x_3)) (= x_0 0)) (= x_1 0)) (= x_78 ?v_25)) (= x_78 1)) (= x_79 ?v_26)) (= x_79 1)) x_5) (= x_6 0)) (= x_80 (select x_7 x_0))) (= x_8 x_80)) (= x_81 (select x_9 x_10))) (= x_22 x_81)) (= x_82 (select x_23 x_24))) (= x_36 x_82)) (= x_83 (select x_37 x_38))) (= x_50 x_83)) (= x_84 (select x_51 x_52))) (= x_64 x_84)) (= x_69 (+ x_55 1))) (= x_85 (select x_59 x_71))) (= x_86 (select x_59 x_74))) (= x_87 (select x_59 x_76))) (or (or (or (and (and (and (and (and (and (and (= x_70 0) (= x_68 (+ x_54 1))) ?v_0) ?v_1) (= x_72 x_71)) (= x_85 1)) (= x_73 (store x_59 x_71 2))) (= x_65 (store x_51 x_54 x_71))) (and (and (and (and (and (and (and (and (and (= x_70 1) ?v_2) ?v_0) ?v_1) ?v_3) ?v_4) (= x_75 x_74)) (= x_86 2)) (= x_64 x_74)) (= x_73 (store x_59 x_74 3)))) (and (and (and (and (and (and (and (and (and (= x_70 2) ?v_2) (= x_66 (+ x_52 1))) ?v_1) ?v_3) ?v_4) (= x_77 x_76)) (= x_87 3)) (or (not (<= x_55 12)) (= x_64 x_76))) (= x_73 (store x_59 x_76 1)))) (and (and (and (and (and (= x_70 3) ?v_3) ?v_0) ?v_1) (= x_73 x_59)) ?v_4))) (= x_55 (+ x_41 1))) (= x_88 (select x_45 x_57))) (= x_89 (select x_45 x_60))) (= x_90 (select x_45 x_62))) (or (or (or (and (and (and (and (and (and (and (= x_56 0) (= x_54 (+ x_40 1))) ?v_5) ?v_6) (= x_58 x_57)) (= x_88 1)) (= x_59 (store x_45 x_57 2))) (= x_51 (store x_37 x_40 x_57))) (and (and (and (and (and (and (and (and (and (= x_56 1) ?v_7) ?v_5) ?v_6) ?v_8) ?v_9) (= x_61 x_60)) (= x_89 2)) (= x_50 x_60)) (= x_59 (store x_45 x_60 3)))) (and (and (and (and (and (and (and (and (and (= x_56 2) ?v_7) (= x_52 (+ x_38 1))) ?v_6) ?v_8) ?v_9) (= x_63 x_62)) (= x_90 3)) (or (not (<= x_41 12)) (= x_50 x_62))) (= x_59 (store x_45 x_62 1)))) (and (and (and (and (and (= x_56 3) ?v_8) ?v_5) ?v_6) (= x_59 x_45)) ?v_9))) (= x_41 (+ x_27 1))) (= x_91 (select x_31 x_43))) (= x_92 (select x_31 x_46))) (= x_93 (select x_31 x_48))) (or (or (or (and (and (and (and (and (and (and (= x_42 0) (= x_40 (+ x_26 1))) ?v_10) ?v_11) (= x_44 x_43)) (= x_91 1)) (= x_45 (store x_31 x_43 2))) (= x_37 (store x_23 x_26 x_43))) (and (and (and (and (and (and (and (and (and (= x_42 1) ?v_12) ?v_10) ?v_11) ?v_13) ?v_14) (= x_47 x_46)) (= x_92 2)) (= x_36 x_46)) (= x_45 (store x_31 x_46 3)))) (and (and (and (and (and (and (and (and (and (= x_42 2) ?v_12) (= x_38 (+ x_24 1))) ?v_11) ?v_13) ?v_14) (= x_49 x_48)) (= x_93 3)) (or (not (<= x_27 12)) (= x_36 x_48))) (= x_45 (store x_31 x_48 1)))) (and (and (and (and (and (= x_42 3) ?v_13) ?v_10) ?v_11) (= x_45 x_31)) ?v_14))) (= x_27 (+ x_13 1))) (= x_94 (select x_17 x_29))) (= x_95 (select x_17 x_32))) (= x_96 (select x_17 x_34))) (or (or (or (and (and (and (and (and (and (and (= x_28 0) (= x_26 (+ x_12 1))) ?v_15) ?v_16) (= x_30 x_29)) (= x_94 1)) (= x_31 (store x_17 x_29 2))) (= x_23 (store x_9 x_12 x_29))) (and (and (and (and (and (and (and (and (and (= x_28 1) ?v_17) ?v_15) ?v_16) ?v_18) ?v_19) (= x_33 x_32)) (= x_95 2)) (= x_22 x_32)) (= x_31 (store x_17 x_32 3)))) (and (and (and (and (and (and (and (and (and (= x_28 2) ?v_17) (= x_24 (+ x_10 1))) ?v_16) ?v_18) ?v_19) (= x_35 x_34)) (= x_96 3)) (or (not (<= x_13 12)) (= x_22 x_34))) (= x_31 (store x_17 x_34 1)))) (and (and (and (and (and (= x_28 3) ?v_18) ?v_15) ?v_16) (= x_31 x_17)) ?v_19))) (= x_13 (+ x_6 1))) (= x_97 (select x_2 x_15))) (= x_98 (select x_2 x_18))) (= x_99 (select x_2 x_20))) (or (or (or (and (and (and (and (and (and (and (= x_14 0) (= x_12 (+ x_1 1))) ?v_20) ?v_21) (= x_16 x_15)) (= x_97 1)) (= x_17 (store x_2 x_15 2))) (= x_9 (store x_7 x_1 x_15))) (and (and (and (and (and (and (and (and (and (= x_14 1) ?v_22) ?v_20) ?v_21) ?v_23) ?v_24) (= x_19 x_18)) (= x_98 2)) (= x_8 x_18)) (= x_17 (store x_2 x_18 3)))) (and (and (and (and (and (and (and (and (and (= x_14 2) ?v_22) (= x_10 (+ x_0 1))) ?v_21) ?v_23) ?v_24) (= x_21 x_20)) (= x_99 3)) (or (not (<= x_6 12)) (= x_8 x_20))) (= x_17 (store x_2 x_20 1)))) (and (and (and (and (and (= x_14 3) ?v_23) ?v_20) ?v_21) (= x_17 x_2)) ?v_24))) (= x_100 (select x_73 x_3))) (= x_101 (select x_73 x_4))) (= x_102 (select x_59 x_3))) (= x_103 (select x_59 x_4))) (= x_104 (select x_45 x_3))) (= x_105 (select x_45 x_4))) (= x_106 (select x_31 x_3))) (= x_107 (select x_31 x_4))) (= x_108 (select x_17 x_3))) (= x_109 (select x_17 x_4))) (= x_110 ?v_25)) (= x_111 ?v_26)) (or (or (or (or (or (and (= x_100 3) (= x_101 3)) (and (= x_102 3) (= x_103 3))) (and (= x_104 3) (= x_105 3))) (and (= x_106 3) (= x_107 3))) (and (= x_108 3) (= x_109 3))) (and (= x_110 3) (= x_111 3))))))
; --- Injected Array Sum Constraint ---
(assert (sum x_37 (+ x_81 (+ x_80 x_86))))
(assert (sum x_31 (+ x_84 (+ x_93 x_34))))
(assert (sum x_37 (+ x_21 (+ x_66 x_103))))
(assert (sum x_51 (+ x_86 (+ x_61 x_111))))
(assert (sum x_73 (+ x_79 (+ x_86 x_93))))
(assert (sum x_59 (+ x_43 (+ x_111 x_30))))
(assert (sum x_59 (+ x_14 (+ x_86 x_44))))
(assert (sum x_23 (+ x_68 (+ x_14 x_26))))
(assert (sum x_37 (+ x_75 (+ x_0 x_86))))
(assert (sum x_17 (+ x_4 (+ x_21 x_32))))
(check-sat)
(exit)